c File: instances/26_0.20_2.col
c
c Description: Random graph of size 26 vertices and P(0.2) of edges between any two vertices.
p col 26 325
e 1 6
e 1 14
e 1 17
e 1 18
e 1 24
e 1 25
e 2 9
e 2 21
e 3 4
e 3 13
e 3 14
e 3 17
e 3 18
e 3 19
e 4 6
e 4 7
e 4 9
e 4 15
e 4 22
e 5 9
e 5 12
e 5 14
e 5 19
e 5 23
e 5 25
e 6 7
e 6 8
e 6 18
e 6 20
e 7 21
e 7 22
e 8 14
e 8 21
e 8 25
e 8 26
e 9 15
e 9 17
e 9 18
e 9 19
e 9 25
e 10 12
e 10 15
e 10 16
e 10 17
e 10 18
e 11 19
e 12 15
e 12 22
e 12 23
e 13 14
e 13 17
e 13 26
e 14 16
e 14 19
e 14 22
e 15 23
e 15 24
e 16 24
e 16 26
e 17 24
e 18 21
e 20 26
e 21 25